
Gurobi 9.5.2 (mac64[arm]) logging started Tue Jan  3 19:38:16 2023

Set parameter LogFile to value "./ccga_results/2023-01-03 19-38-15-383/MSP_TimeStampConvert_gurobi_log.txt"

Gurobi 9.5.2 (mac64[arm]) logging started Tue Jan  3 19:38:16 2023

Set parameter LogFile to value "./ccga_results/2023-01-03 19-38-15-383/MSP_TimeStampConvert_gurobi_log.txt"
Set parameter TimeLimit to value 180
Gurobi Optimizer version 9.5.2 build v9.5.2rc0 (mac64[arm])
Thread count: 8 physical cores, 8 logical processors, using up to 8 threads
Optimize a model with 120 rows, 97 columns and 282 nonzeros
Model fingerprint: 0xa81ce8c1
Variable types: 25 continuous, 72 integer (72 binary)
Coefficient statistics:
  Matrix range     [1e+00, 1e+00]
  Objective range  [1e+00, 1e+00]
  Bounds range     [5e+01, 5e+01]
  RHS range        [1e+00, 1e+00]
Found heuristic solution: objective -0.0000000
Found heuristic solution: objective 50.0000000
Presolve removed 120 rows and 97 columns
Presolve time: 0.00s
Presolve: All rows and columns removed

Explored 0 nodes (0 simplex iterations) in 0.00 seconds (0.00 work units)
Thread count was 1 (of 8 available processors)

Solution count 2: 50 -0 

Optimal solution found (tolerance 1.00e-03)
Best objective 5.000000000000e+01, best bound 5.000000000000e+01, gap 0.0000%

User-callback calls 352, time in user-callback 0.00 sec
Gurobi Optimizer version 9.5.2 build v9.5.2rc0 (mac64[arm])
Thread count: 8 physical cores, 8 logical processors, using up to 8 threads
Optimize a model with 557 rows, 289 columns and 2284 nonzeros
Model fingerprint: 0xd74d4891
Variable types: 205 continuous, 84 integer (84 binary)
Coefficient statistics:
  Matrix range     [3e-02, 8e+02]
  Objective range  [1e+00, 1e+00]
  Bounds range     [5e+01, 5e+01]
  RHS range        [1e+00, 1e+08]

MIP start from previous solve did not produce a new incumbent solution

Presolve removed 199 rows and 130 columns
Presolve time: 0.00s
Presolved: 358 rows, 159 columns, 1379 nonzeros
Variable types: 89 continuous, 70 integer (70 binary)
Found heuristic solution: objective 19.2307819
Found heuristic solution: objective 37.0873939
Found heuristic solution: objective 37.1945931

Root relaxation: objective 5.000000e+01, 108 iterations, 0.00 seconds (0.00 work units)

    Nodes    |    Current Node    |     Objective Bounds      |     Work
 Expl Unexpl |  Obj  Depth IntInf | Incumbent    BestBd   Gap | It/Node Time

     0     0   50.00000    0    5   37.19459   50.00000  34.4%     -    0s
H    0     0                      39.5702818   50.00000  26.4%     -    0s
H    0     0                      50.0000000   50.00000  0.00%     -    0s

Explored 1 nodes (108 simplex iterations) in 0.01 seconds (0.01 work units)
Thread count was 8 (of 8 available processors)

Solution count 5: 50 39.5703 37.1946 ... 19.2308

Optimal solution found (tolerance 1.00e-03)
Best objective 5.000000000000e+01, best bound 5.000000000000e+01, gap 0.0000%

User-callback calls 323, time in user-callback 0.00 sec
Gurobi Optimizer version 9.5.2 build v9.5.2rc0 (mac64[arm])
Thread count: 8 physical cores, 8 logical processors, using up to 8 threads
Optimize a model with 994 rows, 481 columns and 4286 nonzeros
Model fingerprint: 0x3d3841c4
Variable types: 385 continuous, 96 integer (96 binary)
Coefficient statistics:
  Matrix range     [3e-02, 8e+02]
  Objective range  [1e+00, 1e+00]
  Bounds range     [5e+01, 5e+01]
  RHS range        [1e+00, 1e+08]

MIP start from previous solve did not produce a new incumbent solution

Presolve removed 375 rows and 248 columns
Presolve time: 0.01s
Presolved: 619 rows, 233 columns, 2518 nonzeros
Variable types: 153 continuous, 80 integer (80 binary)
Found heuristic solution: objective 19.2307819
Found heuristic solution: objective 37.0873939
Found heuristic solution: objective 37.1945931

Root relaxation: objective 4.296215e+01, 316 iterations, 0.00 seconds (0.00 work units)

    Nodes    |    Current Node    |     Objective Bounds      |     Work
 Expl Unexpl |  Obj  Depth IntInf | Incumbent    BestBd   Gap | It/Node Time

     0     0   41.73860    0    3   37.19459   41.73860  12.2%     -    0s
H    0     0                      39.5702818   41.73860  5.48%     -    0s

Cutting planes:
  Gomory: 1
  Flow cover: 1

Explored 1 nodes (378 simplex iterations) in 0.03 seconds (0.03 work units)
Thread count was 8 (of 8 available processors)

Solution count 4: 39.5703 37.1946 37.0874 19.2308 

Optimal solution found (tolerance 1.00e-03)
Best objective 3.957028182338e+01, best bound 3.957028182338e+01, gap 0.0000%

User-callback calls 334, time in user-callback 0.00 sec
Gurobi Optimizer version 9.5.2 build v9.5.2rc0 (mac64[arm])
Thread count: 8 physical cores, 8 logical processors, using up to 8 threads
Optimize a model with 1431 rows, 673 columns and 6288 nonzeros
Model fingerprint: 0xb9793101
Variable types: 565 continuous, 108 integer (108 binary)
Coefficient statistics:
  Matrix range     [3e-02, 8e+02]
  Objective range  [1e+00, 1e+00]
  Bounds range     [5e+01, 5e+01]
  RHS range        [1e+00, 1e+08]

MIP start from previous solve did not produce a new incumbent solution

Presolve removed 548 rows and 366 columns
Presolve time: 0.01s
Presolved: 883 rows, 307 columns, 3693 nonzeros
Variable types: 217 continuous, 90 integer (90 binary)
Found heuristic solution: objective 19.2307819
Found heuristic solution: objective 20.0000000
Found heuristic solution: objective 26.1127892

Root relaxation: objective 3.785678e+01, 585 iterations, 0.01 seconds (0.01 work units)

    Nodes    |    Current Node    |     Objective Bounds      |     Work
 Expl Unexpl |  Obj  Depth IntInf | Incumbent    BestBd   Gap | It/Node Time

     0     0   37.85678    0   24   26.11279   37.85678  45.0%     -    0s
H    0     0                      27.2018349   37.85678  39.2%     -    0s
H    0     0                      27.5462963   32.48123  17.9%     -    0s
     0     0   32.48123    0   16   27.54630   32.48123  17.9%     -    0s
     0     0   32.25136    0   16   27.54630   32.25136  17.1%     -    0s
     0     0   32.22247    0   16   27.54630   32.22247  17.0%     -    0s
     0     0   31.93071    0   29   27.54630   31.93071  15.9%     -    0s
     0     0   31.89732    0   24   27.54630   31.89732  15.8%     -    0s
     0     0   31.89548    0   26   27.54630   31.89548  15.8%     -    0s
     0     0   31.87105    0   26   27.54630   31.87105  15.7%     -    0s
     0     0   31.85014    0   24   27.54630   31.85014  15.6%     -    0s
     0     0   31.77678    0   16   27.54630   31.77678  15.4%     -    0s
     0     0   31.57166    0   13   27.54630   31.57166  14.6%     -    0s
     0     0   31.40495    0   17   27.54630   31.40495  14.0%     -    0s
     0     0   31.26861    0   17   27.54630   31.26861  13.5%     -    0s
     0     0   30.21013    0   17   27.54630   30.21013  9.67%     -    0s
     0     0   29.84324    0   17   27.54630   29.84324  8.34%     -    0s
     0     0   29.61382    0   11   27.54630   29.61382  7.51%     -    0s
H    0     0                      29.6138211   29.61382  0.00%     -    0s

Cutting planes:
  Cover: 1
  Implied bound: 3
  MIR: 14
  Flow cover: 21
  Relax-and-lift: 1

Explored 1 nodes (990 simplex iterations) in 0.16 seconds (0.10 work units)
Thread count was 8 (of 8 available processors)

Solution count 6: 29.6138 27.5463 27.2018 ... 19.2308

Optimal solution found (tolerance 1.00e-03)
Best objective 2.961382113821e+01, best bound 2.961382113821e+01, gap 0.0000%

User-callback calls 465, time in user-callback 0.00 sec
